benchmarks_CP/INST_36x36/25/inst36x36_25_82.dzn
S=6;
start=[|
-1,	-1,	29,	-1,	-1,	-1,	-1,	-1,	30,	-1,	35,	1,	-1,	-1,	23,	-1,	-1,	-1,	-1,	-1,	-1,	-1,	26,	31,	-1,	-1,	-1,	-1,	-1,	-1,	-1,	-1,	-1,	-1,	-1,	24|
-1,	-1,	-1,	-1,	1,	-1,	-1,	-1,	-1,	-1,	-1,	-1,	12,	-1,	-1,	30,	-1,	-1,	17,	-1,	-1,	-1,	-1,	-1,	-1,	6,	-1,	25,	-1,	-1,	-1,	-1,	-1,	33,	-1,	20|
-1,	-1,	-1,	3,	-1,	-1,	-1,	-1,	-1,	-1,	-1,	-1,	-1,	-1,	-1,	-1,	-1,	24,	15,	-1,	22,	-1,	-1,	-1,	-1,	-1,	-1,	-1,	-1,	-1,	6,	32,	-1,	-1,	-1,	-1|
9,	-1,	-1,	-1,	-1,	-1,	-1,	-1,	-1,	-1,	13,	-1,	3,	32,	-1,	-1,	-1,	-1,	-1,	24,	-1,	36,	-1,	-1,	-1,	-1,	-1,	-1,	-1,	-1,	-1,	-1,	-1,	-1,	1,	-1|
5,	-1,	-1,	-1,	-1,	-1,	-1,	-1,	-1,	8,	-1,	-1,	36,	-1,	9,	-1,	-1,	-1,	-1,	-1,	-1,	-1,	30,	-1,	-1,	-1,	-1,	17,	-1,	1,	-1,	-1,	-1,	-1,	-1,	-1|
-1,	-1,	6,	-1,	23,	-1,	-1,	22,	-1,	33,	-1,	-1,	-1,	-1,	-1,	-1,	16,	-1,	9,	-1,	-1,	-1,	-1,	-1,	-1,	-1,	-1,	-1,	7,	-1,	-1,	-1,	-1,	-1,	-1,	-1|
10,	28,	-1,	-1,	-1,	7,	5,	30,	-1,	36,	-1,	-1,	24,	-1,	-1,	16,	-1,	-1,	-1,	-1,	-1,	-1,	-1,	34,	33,	27,	-1,	19,	-1,	-1,	35,	-1,	-1,	-1,	-1,	-1|
-1,	-1,	-1,	-1,	9,	3,	-1,	7,	4,	-1,	-1,	-1,	-1,	-1,	32,	-1,	-1,	-1,	-1,	1,	-1,	-1,	-1,	-1,	-1,	-1,	-1,	-1,	-1,	16,	33,	-1,	-1,	-1,	23,	-1|
-1,	-1,	-1,	-1,	-1,	-1,	-1,	-1,	-1,	-1,	-1,	18,	-1,	-1,	26,	31,	-1,	29,	-1,	-1,	-1,	-1,	-1,	-1,	-1,	-1,	-1,	21,	-1,	2,	-1,	-1,	34,	-1,	-1,	-1|
-1,	-1,	-1,	-1,	-1,	-1,	-1,	-1,	-1,	23,	-1,	-1,	-1,	-1,	-1,	-1,	-1,	-1,	18,	14,	5,	-1,	-1,	-1,	-1,	-1,	8,	-1,	-1,	-1,	-1,	-1,	9,	-1,	-1,	-1|
-1,	18,	-1,	-1,	-1,	-1,	-1,	33,	-1,	-1,	-1,	-1,	34,	-1,	7,	-1,	-1,	-1,	-1,	9,	-1,	-1,	-1,	-1,	-1,	17,	-1,	4,	-1,	32,	-1,	-1,	-1,	-1,	30,	-1|
-1,	-1,	-1,	-1,	-1,	-1,	21,	17,	-1,	-1,	32,	-1,	13,	-1,	-1,	-1,	-1,	-1,	-1,	-1,	-1,	-1,	-1,	-1,	-1,	-1,	-1,	-1,	-1,	-1,	-1,	-1,	-1,	-1,	-1,	-1|
-1,	-1,	-1,	-1,	13,	30,	-1,	-1,	2,	20,	-1,	-1,	-1,	-1,	24,	3,	-1,	-1,	-1,	-1,	-1,	-1,	-1,	33,	32,	5,	-1,	-1,	35,	-1,	18,	-1,	-1,	-1,	-1,	31|
2,	4,	-1,	-1,	-1,	20,	-1,	-1,	-1,	-1,	10,	23,	-1,	-1,	-1,	-1,	18,	-1,	-1,	13,	-1,	-1,	-1,	-1,	27,	33,	-1,	31,	-1,	3,	-1,	-1,	-1,	-1,	-1,	-1|
-1,	-1,	-1,	-1,	-1,	-1,	-1,	-1,	-1,	-1,	-1,	25,	-1,	2,	-1,	-1,	-1,	-1,	23,	34,	-1,	-1,	-1,	-1,	-1,	-1,	30,	-1,	18,	10,	-1,	-1,	-1,	-1,	13,	-1|
-1,	-1,	-1,	-1,	-1,	29,	31,	-1,	14,	26,	-1,	-1,	-1,	-1,	-1,	-1,	-1,	-1,	-1,	-1,	36,	-1,	-1,	-1,	-1,	9,	-1,	-1,	-1,	-1,	21,	-1,	19,	-1,	-1,	-1|
-1,	35,	-1,	-1,	18,	-1,	-1,	-1,	-1,	-1,	-1,	-1,	-1,	-1,	17,	-1,	-1,	31,	1,	-1,	-1,	21,	4,	-1,	-1,	-1,	-1,	36,	-1,	-1,	9,	-1,	-1,	-1,	-1,	25|
31,	-1,	-1,	21,	-1,	33,	-1,	-1,	-1,	16,	-1,	30,	7,	35,	-1,	19,	-1,	13,	-1,	-1,	-1,	-1,	29,	-1,	24,	-1,	-1,	-1,	14,	-1,	-1,	-1,	-1,	-1,	-1,	1|
33,	-1,	-1,	-1,	-1,	4,	-1,	-1,	-1,	-1,	5,	14,	17,	36,	-1,	-1,	-1,	-1,	20,	-1,	1,	-1,	22,	24,	-1,	31,	-1,	-1,	-1,	7,	-1,	-1,	-1,	9,	-1,	-1|
-1,	10,	-1,	-1,	-1,	-1,	-1,	-1,	22,	-1,	18,	-1,	-1,	24,	8,	-1,	29,	-1,	-1,	21,	-1,	-1,	-1,	-1,	-1,	19,	-1,	-1,	36,	-1,	-1,	-1,	23,	20,	-1,	-1|
-1,	-1,	5,	16,	-1,	-1,	-1,	-1,	-1,	-1,	30,	-1,	-1,	-1,	-1,	-1,	15,	-1,	-1,	-1,	-1,	-1,	11,	-1,	-1,	1,	34,	-1,	13,	-1,	-1,	10,	-1,	-1,	31,	-1|
-1,	-1,	-1,	11,	-1,	-1,	-1,	-1,	-1,	-1,	-1,	-1,	-1,	-1,	14,	-1,	-1,	32,	-1,	-1,	-1,	-1,	-1,	-1,	-1,	22,	-1,	-1,	-1,	17,	-1,	-1,	3,	30,	29,	-1|
21,	-1,	-1,	32,	25,	-1,	-1,	4,	-1,	29,	31,	24,	-1,	-1,	-1,	34,	10,	-1,	-1,	16,	-1,	33,	2,	7,	30,	-1,	-1,	-1,	-1,	-1,	-1,	-1,	-1,	-1,	-1,	-1|
-1,	-1,	-1,	-1,	-1,	-1,	17,	-1,	-1,	-1,	-1,	-1,	-1,	-1,	-1,	6,	-1,	1,	10,	31,	32,	-1,	-1,	-1,	-1,	-1,	14,	-1,	-1,	-1,	-1,	-1,	-1,	-1,	-1,	-1|
30,	-1,	-1,	5,	-1,	-1,	-1,	-1,	-1,	-1,	-1,	26,	-1,	20,	-1,	-1,	-1,	-1,	19,	-1,	-1,	-1,	1,	3,	-1,	35,	-1,	-1,	-1,	-1,	-1,	-1,	-1,	-1,	-1,	-1|
-1,	-1,	-1,	-1,	-1,	-1,	-1,	-1,	-1,	-1,	-1,	-1,	-1,	-1,	-1,	-1,	-1,	-1,	21,	36,	9,	-1,	23,	30,	7,	13,	-1,	-1,	-1,	-1,	-1,	-1,	-1,	-1,	11,	-1|
-1,	25,	-1,	-1,	29,	-1,	8,	-1,	-1,	7,	-1,	-1,	21,	-1,	-1,	-1,	-1,	36,	31,	33,	-1,	-1,	-1,	32,	23,	-1,	-1,	-1,	4,	-1,	-1,	-1,	-1,	-1,	-1,	-1|
-1,	-1,	21,	-1,	-1,	-1,	-1,	-1,	-1,	14,	2,	-1,	-1,	-1,	-1,	-1,	-1,	-1,	-1,	-1,	35,	-1,	-1,	-1,	-1,	-1,	-1,	-1,	-1,	-1,	-1,	-1,	20,	-1,	-1,	-1|
-1,	-1,	-1,	-1,	-1,	26,	-1,	19,	-1,	-1,	-1,	-1,	-1,	30,	-1,	29,	-1,	34,	-1,	-1,	-1,	-1,	-1,	17,	-1,	-1,	-1,	-1,	-1,	-1,	1,	28,	-1,	-1,	-1,	-1|
23,	-1,	-1,	4,	-1,	-1,	6,	-1,	-1,	-1,	-1,	-1,	15,	-1,	12,	-1,	-1,	26,	-1,	29,	-1,	-1,	-1,	-1,	-1,	-1,	3,	2,	30,	19,	-1,	27,	36,	-1,	-1,	-1|
3,	-1,	-1,	-1,	-1,	-1,	-1,	-1,	-1,	-1,	33,	-1,	18,	-1,	-1,	-1,	-1,	20,	-1,	-1,	-1,	30,	-1,	8,	-1,	25,	19,	-1,	-1,	-1,	-1,	-1,	-1,	-1,	-1,	-1|
-1,	29,	-1,	-1,	-1,	31,	-1,	-1,	-1,	-1,	-1,	-1,	-1,	-1,	-1,	-1,	-1,	-1,	-1,	-1,	33,	-1,	35,	12,	6,	-1,	-1,	-1,	-1,	13,	-1,	-1,	25,	-1,	-1,	-1|
-1,	21,	-1,	-1,	-1,	-1,	-1,	-1,	32,	-1,	20,	28,	-1,	-1,	-1,	26,	-1,	-1,	2,	-1,	-1,	6,	-1,	23,	1,	-1,	-1,	-1,	34,	-1,	-1,	-1,	10,	13,	18,	12|
-1,	-1,	-1,	-1,	-1,	-1,	29,	-1,	-1,	11,	-1,	-1,	6,	-1,	-1,	-1,	-1,	-1,	-1,	-1,	-1,	-1,	17,	-1,	-1,	-1,	-1,	-1,	-1,	-1,	8,	-1,	-1,	28,	-1,	-1|
-1,	-1,	-1,	18,	-1,	-1,	-1,	-1,	-1,	-1,	-1,	-1,	29,	11,	-1,	-1,	-1,	-1,	-1,	-1,	26,	1,	-1,	-1,	-1,	-1,	-1,	-1,	-1,	-1,	-1,	-1,	-1,	-1,	-1,	15|
12,	6,	24,	-1,	-1,	19,	23,	-1,	-1,	4,	-1,	8,	-1,	-1,	28,	-1,	-1,	-1,	-1,	22,	-1,	-1,	-1,	11,	9,	-1,	-1,	-1,	17,	18,	-1,	-1,	-1,	-1,	-1,	-1|];
